cra-25/yt/yt.smt2
(declare-const Bracket_1 Real)
(declare-const Bracket_2 Real)
(declare-const Bracket_3 Real)
(declare-const Bracket_4 Real)
(declare-const Bracket_5 Real)
(declare-const FinalTaxes Real)
(declare-const Income Real)

(assert (=> (<= Income 57375) (and (= Bracket_1 (* Income 0.064)) (= Bracket_2 0) (= Bracket_3 0) (= Bracket_4 0) (= Bracket_5 0) (= FinalTaxes (+ Bracket_1 Bracket_2 Bracket_3 Bracket_4 Bracket_5)))))
(assert (=> (and (> Income 57375) (<= Income 114750)) (and (= Bracket_1 (* 57375 0.064)) (= Bracket_2 (* (- Income 57375) 0.09)) (= Bracket_3 0) (= Bracket_4 0) (= Bracket_5 0) (= FinalTaxes (+ Bracket_1 Bracket_2 Bracket_3 Bracket_4 Bracket_5)))))
(assert (=> (and (> Income 114750) (<= Income 177882)) (and (= Bracket_1 (* 57375 0.064)) (= Bracket_2 (* (- 114750 57375) 0.09)) (= Bracket_3 (* (- Income 114750) 0.109)) (= Bracket_4 0) (= Bracket_5 0) (= FinalTaxes (+ Bracket_1 Bracket_2 Bracket_3 Bracket_4 Bracket_5)))))
(assert (=> (and (> Income 177882) (<= Income 500000)) (and (= Bracket_1 (* 57375 0.064)) (= Bracket_2 (* (- 114750 57375) 0.09)) (= Bracket_3 (* (- 177882 114750) 0.109)) (= Bracket_4 (* (- Income 177882) 0.128)) (= Bracket_5 0) (= FinalTaxes (+ Bracket_1 Bracket_2 Bracket_3 Bracket_4 Bracket_5)))))
(assert (=> (> Income 500000) (and (= Bracket_1 (* 57375 0.064)) (= Bracket_2 (* (- 114750 57375) 0.09)) (= Bracket_3 (* (- 177882 114750) 0.109)) (= Bracket_4 (* (- 500000 177882) 0.128)) (= Bracket_5 (* (- Income 500000) 0.15)) (= FinalTaxes (+ Bracket_1 Bracket_2 Bracket_3 Bracket_4 Bracket_5)))))
